V4 Cu9 Cl2 O18
1.0
6.472952 -0.002293 -0.690742
-2.805280 7.585029 -2.196033
0.005475 0.045425 9.298450
V Cu Cl O
4 9 2 18
direct
0.110260 0.583488 0.350026 V
0.889740 0.416512 0.649974 V
0.675536 0.750227 0.148796 V
0.324464 0.249773 0.851204 V
0.859087 0.282284 0.970031 Cu
0.140913 0.717716 0.029969 Cu
0.582325 0.454366 0.357577 Cu
0.417675 0.545634 0.642423 Cu
0.830690 0.168493 0.312244 Cu
0.169310 0.831507 0.687756 Cu
0.500000 0.000000 0.000000 Cu
0.000000 0.000000 0.000000 Cu
0.000000 0.000000 0.500000 Cu
0.348222 0.130470 0.276652 Cl
0.651778 0.869530 0.723348 Cl
0.608665 0.560995 0.193165 O
0.391335 0.439005 0.806835 O
0.860607 0.408238 0.340586 O
0.139393 0.591762 0.659414 O
0.659787 0.463720 0.580886 O
0.340213 0.536280 0.419114 O
0.909760 0.219436 0.535516 O
0.090240 0.780564 0.464484 O
0.891656 0.415558 0.833553 O
0.108344 0.584442 0.166447 O
0.122072 0.225618 0.967724 O
0.877928 0.774382 0.032276 O
0.809138 0.110328 0.094160 O
0.190862 0.889672 0.905840 O
0.549360 0.218277 0.950486 O
0.450640 0.781723 0.049514 O
0.786532 0.931437 0.316510 O
0.213468 0.068563 0.683490 O
